computational_data/logs/ER_n20_p035_s5.log
Welcome to the CBC MILP Solver 
Version: 2.10.12 
Build Date: Aug 20 2024 

command line - /opt/homebrew/bin/cbc computational_data/lp/ER_n20_p035_s5.lp seconds 10.0 solve solu computational_data/solutions/ER_n20_p035_s5.sol (default strategy 1)
seconds was changed from 1e+100 to 10
Continuous objective value is 4.92424 - 0.00 seconds
Cgl0003I 0 fixed, 0 tightened bounds, 54 strengthened rows, 0 substitutions
Cgl0003I 0 fixed, 0 tightened bounds, 49 strengthened rows, 0 substitutions
Cgl0003I 0 fixed, 0 tightened bounds, 20 strengthened rows, 0 substitutions
Cgl0003I 0 fixed, 0 tightened bounds, 5 strengthened rows, 0 substitutions
Cgl0003I 0 fixed, 0 tightened bounds, 3 strengthened rows, 0 substitutions
Cgl0004I processed model has 133 rows, 40 columns (40 integer (40 of which binary)) and 613 elements
Cutoff increment increased from 1e-05 to 0.9999
Cbc0038I Initial state - 22 integers unsatisfied sum - 4.86364
Cbc0038I Pass   1: suminf.    3.66667 (22) obj. 5.38095 iterations 22
Cbc0038I Pass   2: suminf.    2.86813 (22) obj. 5.65934 iterations 7
Cbc0038I Pass   3: suminf.    0.00000 (0) obj. 7 iterations 15
Cbc0038I Solution found of 7
Cbc0038I Before mini branch and bound, 12 integers at bound fixed and 0 continuous
Cbc0038I Full problem 133 rows 40 columns, reduced to 109 rows 28 columns
Cbc0038I Mini branch and bound did not improve solution (0.01 seconds)
Cbc0038I Round again with cutoff of 5.89251
Cbc0038I Pass   4: suminf.    3.66667 (22) obj. 5.38095 iterations 0
Cbc0038I Pass   5: suminf.    2.86813 (22) obj. 5.65934 iterations 10
Cbc0038I Pass   6: suminf.    2.28865 (20) obj. 5.89251 iterations 18
Cbc0038I Pass   7: suminf.    5.06803 (16) obj. 5.89251 iterations 33
Cbc0038I Pass   8: suminf.    4.30107 (15) obj. 5.89251 iterations 21
Cbc0038I Pass   9: suminf.    4.88889 (18) obj. 5.89251 iterations 27
Cbc0038I Pass  10: suminf.    3.88658 (18) obj. 5.89251 iterations 12
Cbc0038I Pass  11: suminf.    4.76501 (19) obj. 5.89251 iterations 27
Cbc0038I Pass  12: suminf.    3.75775 (20) obj. 5.89251 iterations 14
Cbc0038I Pass  13: suminf.    4.83696 (20) obj. 5.89251 iterations 23
Cbc0038I Pass  14: suminf.    2.84405 (17) obj. 5.89251 iterations 25
Cbc0038I Pass  15: suminf.    2.84405 (17) obj. 5.89251 iterations 0
Cbc0038I Pass  16: suminf.    5.34247 (19) obj. 5.89251 iterations 35
Cbc0038I Pass  17: suminf.    4.46204 (20) obj. 5.89251 iterations 16
Cbc0038I Pass  18: suminf.    4.39251 (16) obj. 5.89251 iterations 29
Cbc0038I Pass  19: suminf.    3.75000 (17) obj. 5.5 iterations 20
Cbc0038I Pass  20: suminf.    3.00000 (21) obj. 5.71429 iterations 7
Cbc0038I Pass  21: suminf.    2.86765 (23) obj. 5.66176 iterations 4
Cbc0038I Pass  22: suminf.    3.13494 (20) obj. 5.89251 iterations 10
Cbc0038I Pass  23: suminf.    2.28865 (19) obj. 5.89251 iterations 14
Cbc0038I Pass  24: suminf.    4.82150 (18) obj. 5.89251 iterations 29
Cbc0038I Pass  25: suminf.    4.39320 (16) obj. 5.89251 iterations 16
Cbc0038I Pass  26: suminf.    5.03537 (17) obj. 5.89251 iterations 26
Cbc0038I Pass  27: suminf.    2.86813 (22) obj. 5.65934 iterations 32
Cbc0038I Pass  28: suminf.    2.28865 (20) obj. 5.89251 iterations 19
Cbc0038I Pass  29: suminf.    4.93922 (16) obj. 5.89251 iterations 31
Cbc0038I Pass  30: suminf.    3.62500 (21) obj. 5.625 iterations 28
Cbc0038I Pass  31: suminf.    4.77687 (15) obj. 5.89251 iterations 38
Cbc0038I Pass  32: suminf.    4.14331 (17) obj. 5.89251 iterations 14
Cbc0038I Pass  33: suminf.    4.66123 (17) obj. 5.89251 iterations 31
Cbc0038I No solution found this major pass
Cbc0038I Before mini branch and bound, 1 integers at bound fixed and 0 continuous
Cbc0038I Full problem 133 rows 40 columns, reduced to 132 rows 39 columns - 1 fixed gives 92, 29 - ok now
Cbc0038I Full problem 133 rows 40 columns, reduced to 74 rows 22 columns
Cbc0038I Mini branch and bound did not improve solution (0.02 seconds)
Cbc0038I After 0.02 seconds - Feasibility pump exiting with objective of 7 - took 0.01 seconds
Cbc0012I Integer solution of 7 found by feasibility pump after 0 iterations and 0 nodes (0.02 seconds)
Cbc0038I Full problem 133 rows 40 columns, reduced to 97 rows 23 columns
Cbc0031I 7 added rows had average density of 29.571429
Cbc0013I At root node, 7 cuts changed objective from 4.9242424 to 6 in 100 passes
Cbc0014I Cut generator 0 (Probing) - 3 row cuts average 6.0 elements, 0 column cuts (0 active)  in 0.014 seconds - new frequency is -100
Cbc0014I Cut generator 1 (Gomory) - 1223 row cuts average 39.7 elements, 0 column cuts (0 active)  in 0.011 seconds - new frequency is 1
Cbc0014I Cut generator 2 (Knapsack) - 0 row cuts average 0.0 elements, 0 column cuts (0 active)  in 0.006 seconds - new frequency is -100
Cbc0014I Cut generator 3 (Clique) - 1 row cuts average 3.0 elements, 0 column cuts (0 active)  in 0.002 seconds - new frequency is -100
Cbc0014I Cut generator 4 (MixedIntegerRounding2) - 21 row cuts average 39.9 elements, 0 column cuts (0 active)  in 0.009 seconds - new frequency is -100
Cbc0014I Cut generator 5 (FlowCover) - 0 row cuts average 0.0 elements, 0 column cuts (0 active)  in 0.001 seconds - new frequency is -100
Cbc0014I Cut generator 6 (TwoMirCuts) - 51 row cuts average 39.0 elements, 0 column cuts (0 active)  in 0.007 seconds - new frequency is -100
Cbc0014I Cut generator 7 (ZeroHalf) - 422 row cuts average 10.1 elements, 0 column cuts (0 active)  in 0.127 seconds - new frequency is 1
Cbc0010I After 0 nodes, 1 on tree, 7 best solution, best possible 6 (0.25 seconds)
Cbc0001I Search completed - best objective 7, took 3172 iterations and 4 nodes (0.27 seconds)
Cbc0032I Strong branching done 88 times (1362 iterations), fathomed 1 nodes and fixed 5 variables
Cbc0035I Maximum depth 1, 0 variables fixed on reduced cost
Cuts at root node changed objective from 4.92424 to 6
Probing was tried 100 times and created 3 cuts of which 0 were active after adding rounds of cuts (0.014 seconds)
Gomory was tried 110 times and created 1287 cuts of which 0 were active after adding rounds of cuts (0.012 seconds)
Knapsack was tried 100 times and created 0 cuts of which 0 were active after adding rounds of cuts (0.006 seconds)
Clique was tried 100 times and created 1 cuts of which 0 were active after adding rounds of cuts (0.002 seconds)
MixedIntegerRounding2 was tried 100 times and created 21 cuts of which 0 were active after adding rounds of cuts (0.009 seconds)
FlowCover was tried 100 times and created 0 cuts of which 0 were active after adding rounds of cuts (0.001 seconds)
TwoMirCuts was tried 100 times and created 51 cuts of which 0 were active after adding rounds of cuts (0.007 seconds)
ZeroHalf was tried 110 times and created 476 cuts of which 0 were active after adding rounds of cuts (0.141 seconds)

Result - Optimal solution found

Objective value:                7.00000000
Enumerated nodes:               4
Total iterations:               3172
Time (CPU seconds):             0.27
Time (Wallclock seconds):       0.29

Total time (CPU seconds):       0.27   (Wallclock seconds):       0.29

